(set-logic LIA)

(synth-fun getArea ( (__iv__input_0_ Int) (__iv__input_1_ Int) (__iv__input_2_ Int) (__iv__input_3_ Int) (__iv__input_4_ Int) (__iv__input_5_ Int) (__iv__input_6_ Int) (__iv__input_7_ Int) (__iv__input_8_ Int) (__iv__input_9_ Int) (__iv__input_10_ Int) (__iv__input_11_ Int) (__iv__input_12_ Int) (__iv__input_13_ Int) (__iv__input_14_ Int) (__iv__input_15_ Int) (__iv__input_16_ Int) (__iv__input_17_ Int) (__iv__input_18_ Int) (__iv__input_19_ Int) (__iv__input_20_ Int) (__iv__input_21_ Int) (__iv__input_22_ Int) (__iv__input_23_ Int) (__iv__input_24_ Int) (__iv__input_25_ Int) (__iv__input_26_ Int) (__iv__input_27_ Int) (__iv__input_28_ Int) (__iv__input_29_ Int) (__iv__input_30_ Int) (__iv__input_31_ Int) (__iv__input_32_ Int) (__iv__input_33_ Int) (__iv__input_34_ Int) (__iv__input_35_ Int) (__iv__input_36_ Int) (__iv__input_37_ Int) (__iv__input_38_ Int) (__iv__input_39_ Int) (__iv__input_40_ Int) (__iv__input_41_ Int)) Int
((Start Int (ntInt))
(ntInt Int (
	0 1 2 3 -1 5 
	__iv__input_0_ __iv__input_1_ __iv__input_2_ __iv__input_3_ __iv__input_4_ __iv__input_5_ __iv__input_6_ __iv__input_7_ __iv__input_8_ __iv__input_9_ __iv__input_10_ __iv__input_11_ __iv__input_12_ __iv__input_13_ __iv__input_14_ __iv__input_15_ __iv__input_16_ __iv__input_17_ __iv__input_18_ __iv__input_19_ __iv__input_20_ __iv__input_21_ __iv__input_22_ __iv__input_23_ __iv__input_24_ __iv__input_25_ __iv__input_26_ __iv__input_27_ __iv__input_28_ __iv__input_29_ __iv__input_30_ __iv__input_31_ __iv__input_32_ __iv__input_33_ __iv__input_34_ __iv__input_35_ __iv__input_36_ __iv__input_37_ __iv__input_38_ __iv__input_39_ __iv__input_40_ __iv__input_41_ 
	(* ntInt ntInt)
	(+ ntInt ntInt)
	(ite ntBool ntInt ntInt)
	(- ntInt ntInt)
))
(ntBool Bool (
	(not ntBool)
	(or ntBool ntBool)
	(and ntBool ntBool)
	(< ntInt ntInt)
	(= ntInt ntInt)
	(>= ntInt ntInt)
))
))

(constraint (=(getArea 3 5 17 0 0 0 0 0 0 0 0 0 128 172 0 0 0 0 0 0 0 0 0 0 0 0 5 0 0 1 0 0 0 0 8 0 0 0 1 0 0 0) 0))
(constraint (=(getArea 5 8 0 8 0 0 0 0 32 0 0 0 1 0 64 0 0 0 0 0 0 0 0 0 0 1 0 0 57 45 0 0 0 0 0 0 0 0 2 0 0 0) 0))
(constraint (=(getArea 7 8 0 8 0 0 0 0 32 0 0 0 1 0 64 0 0 0 0 0 0 0 0 0 0 1 0 0 57 45 0 0 0 0 0 0 0 0 2 0 0 0) 0))
(constraint (=(getArea 0 2 0 0 0 0 0 0 4 0 0 0 0 0 1 0 0 0 0 0 0 0 0 0 0 8 0 0 184 245 0 0 0 0 0 0 0 0 0 0 0 0) 0))
(constraint (=(getArea 0 8 106 0 0 0 0 0 1 248 0 0 128 0 0 0 0 0 0 1 0 0 0 0 0 128 0 0 3 1 0 0 0 0 2 84 0 1 8 0 0 0) 0))
(constraint (=(getArea 0 8 0 8 0 0 0 0 32 0 0 0 1 0 64 0 0 0 0 0 0 0 0 0 0 1 0 0 57 45 0 0 0 0 0 0 0 0 2 0 0 0) 0))
(constraint (=(getArea 0 2 11 8 0 104 0 0 2 192 0 0 1 0 1 0 0 0 0 2 0 0 0 0 0 0 0 0 20 104 128 0 235 0 19 0 0 3 0 0 0 45) 0))
(constraint (=(getArea 4 8 106 0 0 0 0 0 1 248 0 0 128 0 0 0 0 0 0 1 0 0 0 0 0 128 0 0 3 1 0 0 0 0 2 84 0 1 8 0 0 0) 0))
(constraint (=(getArea 4 5 17 0 0 0 0 0 0 0 0 0 128 172 0 0 0 0 0 0 0 0 0 0 0 0 5 0 0 1 0 0 0 0 8 0 0 0 1 0 0 0) 0))
(constraint (=(getArea 1 2 0 0 0 0 0 0 4 0 0 0 0 0 1 0 0 0 0 0 0 0 0 0 0 8 0 0 184 245 0 0 0 0 0 0 0 0 0 0 0 0) 0))
(constraint (=(getArea 0 6 131 8 237 0 0 2 0 0 0 0 32 0 240 0 0 0 0 0 0 0 0 0 0 0 2 0 8 62 2 0 0 0 227 77 0 0 8 0 0 0) 0))
(constraint (=(getArea 2 5 17 0 0 0 0 0 0 0 0 0 128 172 0 0 0 0 0 0 0 0 0 0 0 0 5 0 0 1 0 0 0 0 8 0 0 0 1 0 0 0) 0))
(constraint (=(getArea 3 6 131 8 237 0 0 2 0 0 0 0 32 0 240 0 0 0 0 0 0 0 0 0 0 0 2 0 8 62 2 0 0 0 227 77 0 0 8 0 0 0) 0))
(constraint (=(getArea 7 8 106 0 0 0 0 0 1 248 0 0 128 0 0 0 0 0 0 1 0 0 0 0 0 128 0 0 3 1 0 0 0 0 2 84 0 1 8 0 0 0) 0))
(constraint (=(getArea 2 8 106 0 0 0 0 0 1 248 0 0 128 0 0 0 0 0 0 1 0 0 0 0 0 128 0 0 3 1 0 0 0 0 2 84 0 1 8 0 0 0) 0))
(constraint (=(getArea 5 6 131 8 237 0 0 2 0 0 0 0 32 0 240 0 0 0 0 0 0 0 0 0 0 0 2 0 8 62 2 0 0 0 227 77 0 0 8 0 0 0) 0))
(constraint (=(getArea 6 0 0 0 0 7 0 0 0 3 0 0 0 0 0 0 0 0 0 0 0 0 77 5 0 0 0 0 2 116 5 64 0 0 194 0 3 188 4 0 7 216) 232))
(constraint (=(getArea 0 2 212 0 2 212 0 8 0 0 0 19 1 83 3 3 0 0 0 35 0 0 1 0 0 3 0 0 74 1 1 0 0 0 18 69 128 0 0 0 0 0) 2304))
(constraint (=(getArea 1 2 11 8 0 104 0 0 2 192 0 0 1 0 1 0 0 0 0 2 0 0 0 0 0 0 0 0 20 104 128 0 235 0 19 0 0 3 0 0 0 45) 495))
(constraint (=(getArea 0 2 4 0 2 4 0 2 0 0 0 19 0 83 3 3 0 0 0 35 0 0 11 0 128 1 8 0 41 225 1 0 0 0 34 17 128 1 0 0 0 0) 4224))
(constraint (=(getArea 0 8 197 1 64 64 0 223 1 192 96 62 1 95 16 0 0 1 137 1 255 0 1 209 128 1 3 191 0 161 0 1 158 0 0 158 12 243 1 0 0 0) 47871))
(constraint (=(getArea 6 0 13 0 0 0 5 0 3 0 0 0 0 53 0 0 0 0 0 0 0 0 0 5 5 0 0 0 242 88 0 2 103 0 0 6 5 0 0 3 0 0) 21296))
(check-synth)